p cnf 430 1488
-191 70 0
-191 -164 0
-191 -95 0
-191 -190 0
-191 -53 0
191 -70 164 95 190 53 0
-192 -185 0
-192 75 0
-192 -178 0
-192 131 0
-192 -53 0
192 185 -75 178 -131 53 0
-193 156 0
-193 -104 0
-193 -48 0
-193 116 0
-193 184 0
193 -156 104 48 -116 -184 0
-194 -99 0
-194 -6 0
-194 8 0
-194 -159 0
-194 -179 0
194 99 6 -8 159 179 0
-195 -93 0
-195 177 0
-195 134 0
-195 -10 0
-195 -141 0
195 93 -177 -134 10 141 0
191 192 193 194 195 0
-196 -182 0
-196 -87 0
-196 99 0
-196 33 0
-196 -55 0
196 182 87 -99 -33 55 0
-197 18 0
-197 -1 0
-197 -190 0
-197 120 0
-197 49 0
197 -18 1 190 -120 -49 0
-198 185 0
-198 -53 0
-198 -52 0
-198 48 0
-198 -13 0
198 -185 53 52 -48 13 0
-199 -130 0
-199 -166 0
-199 80 0
-199 -173 0
-199 146 0
199 130 166 -80 173 -146 0
-200 71 0
-200 -1 0
-200 -94 0
-200 -164 0
-200 -145 0
200 -71 1 94 164 145 0
196 197 198 199 200 0
-201 24 0
-201 105 0
-201 -136 0
-201 80 0
-201 72 0
201 -24 -105 136 -80 -72 0
-202 167 0
-202 -2 0
-202 -8 0
-202 -45 0
-202 9 0
202 -167 2 8 45 -9 0
-203 93 0
-203 92 0
-203 -170 0
-203 141 0
-203 -154 0
203 -93 -92 170 -141 154 0
-204 23 0
-204 -142 0
-204 50 0
-204 158 0
-204 -189 0
204 -23 142 -50 -158 189 0
-205 -127 0
-205 24 0
-205 -131 0
-205 -7 0
-205 77 0
205 127 -24 131 7 -77 0
201 202 203 204 205 0
-206 132 0
-206 117 0
-206 185 0
-206 -178 0
-206 120 0
206 -132 -117 -185 178 -120 0
-207 48 0
-207 -54 0
-207 71 0
-207 -62 0
-207 11 0
207 -48 54 -71 62 -11 0
-208 7 0
-208 83 0
-208 -24 0
-208 -90 0
-208 8 0
208 -7 -83 24 90 -8 0
-209 -14 0
-209 44 0
-209 15 0
-209 102 0
-209 -84 0
209 14 -44 -15 -102 84 0
-210 50 0
-210 -28 0
-210 93 0
-210 160 0
-210 43 0
210 -50 28 -93 -160 -43 0
206 207 208 209 210 0
-211 91 0
-211 -117 0
-211 -183 0
-211 97 0
-211 -113 0
211 -91 117 183 -97 113 0
-212 16 0
-212 -131 0
-212 -116 0
-212 -145 0
-212 -187 0
212 -16 131 116 145 187 0
-213 77 0
-213 -78 0
-213 188 0
-213 102 0
-213 38 0
213 -77 78 -188 -102 -38 0
-214 132 0
-214 -173 0
-214 -176 0
-214 92 0
-214 103 0
214 -132 173 176 -92 -103 0
-215 89 0
-215 153 0
-215 -190 0
-215 83 0
-215 110 0
215 -89 -153 190 -83 -110 0
211 212 213 214 215 0
-216 -105 0
-216 95 0
-216 42 0
-216 35 0
-216 31 0
216 105 -95 -42 -35 -31 0
-217 7 0
-217 -165 0
-217 53 0
-217 84 0
-217 -89 0
217 -7 165 -53 -84 89 0
-218 -16 0
-218 148 0
-218 189 0
-218 20 0
-218 104 0
218 16 -148 -189 -20 -104 0
-219 -124 0
-219 140 0
-219 -1 0
-219 165 0
-219 166 0
219 124 -140 1 -165 -166 0
-220 189 0
-220 134 0
-220 50 0
-220 -136 0
-220 157 0
220 -189 -134 -50 136 -157 0
216 217 218 219 220 0
-221 -33 0
-221 -58 0
-221 50 0
-221 -153 0
-221 66 0
221 33 58 -50 153 -66 0
-222 60 0
-222 54 0
-222 -78 0
-222 -179 0
-222 -52 0
222 -60 -54 78 179 52 0
-223 -86 0
-223 -184 0
-223 62 0
-223 -171 0
-223 -1 0
223 86 184 -62 171 1 0
-224 -115 0
-224 -62 0
-224 7 0
-224 -137 0
-224 177 0
224 115 62 -7 137 -177 0
-225 -68 0
-225 -111 0
-225 171 0
-225 61 0
-225 159 0
225 68 111 -171 -61 -159 0
221 222 223 224 225 0
-226 -83 0
-226 -17 0
-226 54 0
-226 -128 0
-226 -158 0
226 83 17 -54 128 158 0
-227 -164 0
-227 -2 0
-227 -63 0
-227 61 0
-227 44 0
227 164 2 63 -61 -44 0
-228 -130 0
-228 -51 0
-228 131 0
-228 184 0
-228 148 0
228 130 51 -131 -184 -148 0
-229 25 0
-229 -153 0
-229 -112 0
-229 -92 0
-229 -69 0
229 -25 153 112 92 69 0
-230 -145 0
-230 89 0
-230 1 0
-230 186 0
-230 -116 0
230 145 -89 -1 -186 116 0
226 227 228 229 230 0
-231 -121 0
-231 14 0
-231 -24 0
-231 9 0
-231 21 0
231 121 -14 24 -9 -21 0
-232 185 0
-232 -139 0
-232 27 0
-232 189 0
-232 -178 0
232 -185 139 -27 -189 178 0
-233 60 0
-233 -180 0
-233 43 0
-233 37 0
-233 103 0
233 -60 180 -43 -37 -103 0
-234 -152 0
-234 -147 0
-234 13 0
-234 112 0
-234 102 0
234 152 147 -13 -112 -102 0
-235 3 0
-235 60 0
-235 -32 0
-235 -115 0
-235 -40 0
235 -3 -60 32 115 40 0
231 232 233 234 235 0
-236 -174 0
-236 117 0
-236 -179 0
-236 184 0
-236 120 0
236 174 -117 179 -184 -120 0
-237 36 0
-237 38 0
-237 -78 0
-237 -190 0
-237 -140 0
237 -36 -38 78 190 140 0
-238 -49 0
-238 66 0
-238 -74 0
-238 86 0
-238 -32 0
238 49 -66 74 -86 32 0
-239 153 0
-239 -43 0
-239 41 0
-239 6 0
-239 -156 0
239 -153 43 -41 -6 156 0
-240 46 0
-240 -95 0
-240 175 0
-240 -62 0
-240 136 0
240 -46 95 -175 62 -136 0
236 237 238 239 240 0
-241 -18 0
-241 -131 0
-241 174 0
-241 -189 0
-241 2 0
241 18 131 -174 189 -2 0
-242 -161 0
-242 172 0
-242 -51 0
-242 157 0
-242 60 0
242 161 -172 51 -157 -60 0
-243 187 0
-243 23 0
-243 171 0
-243 151 0
-243 -74 0
243 -187 -23 -171 -151 74 0
-244 146 0
-244 85 0
-244 -48 0
-244 -15 0
-244 149 0
244 -146 -85 48 15 -149 0
-245 -147 0
-245 145 0
-245 -125 0
-245 -144 0
-245 66 0
245 147 -145 125 144 -66 0
241 242 243 244 245 0
-246 -101 0
-246 -183 0
-246 -73 0
-246 21 0
-246 -180 0
246 101 183 73 -21 180 0
-247 86 0
-247 -58 0
-247 -143 0
-247 61 0
-247 -35 0
247 -86 58 143 -61 35 0
-248 -183 0
-248 82 0
-248 -164 0
-248 86 0
-248 142 0
248 183 -82 164 -86 -142 0
-249 -26 0
-249 -57 0
-249 13 0
-249 103 0
-249 175 0
249 26 57 -13 -103 -175 0
-250 160 0
-250 -59 0
-250 184 0
-250 -187 0
-250 132 0
250 -160 59 -184 187 -132 0
246 247 248 249 250 0
-251 133 0
-251 -57 0
-251 -17 0
-251 14 0
-251 9 0
251 -133 57 17 -14 -9 0
-252 -1 0
-252 164 0
-252 169 0
-252 128 0
-252 -35 0
252 1 -164 -169 -128 35 0
-253 184 0
-253 53 0
-253 178 0
-253 84 0
-253 -13 0
253 -184 -53 -178 -84 13 0
-254 -21 0
-254 74 0
-254 48 0
-254 -125 0
-254 146 0
254 21 -74 -48 125 -146 0
-255 43 0
-255 -48 0
-255 -50 0
-255 -187 0
-255 124 0
255 -43 48 50 187 -124 0
251 252 253 254 255 0
-256 38 0
-256 -57 0
-256 -23 0
-256 -152 0
-256 55 0
256 -38 57 23 152 -55 0
-257 76 0
-257 -77 0
-257 96 0
-257 -156 0
-257 167 0
257 -76 77 -96 156 -167 0
-258 -38 0
-258 153 0
-258 167 0
-258 -68 0
-258 147 0
258 38 -153 -167 68 -147 0
-259 73 0
-259 187 0
-259 151 0
-259 -91 0
-259 -141 0
259 -73 -187 -151 91 141 0
-260 -90 0
-260 -181 0
-260 -25 0
-260 -37 0
-260 -56 0
260 90 181 25 37 56 0
256 257 258 259 260 0
-261 -167 0
-261 81 0
-261 56 0
-261 65 0
-261 112 0
261 167 -81 -56 -65 -112 0
-262 6 0
-262 145 0
-262 190 0
-262 72 0
-262 -75 0
262 -6 -145 -190 -72 75 0
-263 -55 0
-263 -173 0
-263 -164 0
-263 -135 0
-263 16 0
263 55 173 164 135 -16 0
-264 -51 0
-264 87 0
-264 121 0
-264 56 0
-264 -83 0
264 51 -87 -121 -56 83 0
-265 -78 0
-265 144 0
-265 75 0
-265 -102 0
-265 -21 0
265 78 -144 -75 102 21 0
261 262 263 264 265 0
-266 47 0
-266 -7 0
-266 165 0
-266 66 0
-266 -52 0
266 -47 7 -165 -66 52 0
-267 55 0
-267 175 0
-267 -166 0
-267 -112 0
-267 -134 0
267 -55 -175 166 112 134 0
-268 190 0
-268 -112 0
-268 -103 0
-268 -40 0
-268 -102 0
268 -190 112 103 40 102 0
-269 177 0
-269 -121 0
-269 13 0
-269 43 0
-269 80 0
269 -177 121 -13 -43 -80 0
-270 -64 0
-270 -72 0
-270 -87 0
-270 21 0
-270 -59 0
270 64 72 87 -21 59 0
266 267 268 269 270 0
-271 21 0
-271 -61 0
-271 -164 0
-271 165 0
-271 134 0
271 -21 61 164 -165 -134 0
-272 -89 0
-272 -180 0
-272 1 0
-272 158 0
-272 -160 0
272 89 180 -1 -158 160 0
-273 -124 0
-273 -61 0
-273 -56 0
-273 127 0
-273 154 0
273 124 61 56 -127 -154 0
-274 -26 0
-274 157 0
-274 56 0
-274 -59 0
-274 -17 0
274 26 -157 -56 59 17 0
-275 -78 0
-275 -163 0
-275 -157 0
-275 -94 0
-275 154 0
275 78 163 157 94 -154 0
271 272 273 274 275 0
-276 -170 0
-276 150 0
-276 -158 0
-276 23 0
-276 17 0
276 170 -150 158 -23 -17 0
-277 57 0
-277 -43 0
-277 -106 0
-277 143 0
-277 113 0
277 -57 43 106 -143 -113 0
-278 -3 0
-278 -63 0
-278 -110 0
-278 6 0
-278 -53 0
278 3 63 110 -6 53 0
-279 -89 0
-279 82 0
-279 188 0
-279 14 0
-279 100 0
279 89 -82 -188 -14 -100 0
-280 141 0
-280 -159 0
-280 -162 0
-280 -91 0
-280 181 0
280 -141 159 162 91 -181 0
276 277 278 279 280 0
-281 -51 0
-281 -166 0
-281 89 0
-281 -19 0
-281 132 0
281 51 166 -89 19 -132 0
-282 -120 0
-282 -139 0
-282 -29 0
-282 20 0
-282 153 0
282 120 139 29 -20 -153 0
-283 -83 0
-283 108 0
-283 186 0
-283 115 0
-283 73 0
283 83 -108 -186 -115 -73 0
-284 40 0
-284 171 0
-284 -57 0
-284 -118 0
-284 -12 0
284 -40 -171 57 118 12 0
-285 -173 0
-285 -162 0
-285 130 0
-285 -82 0
-285 -36 0
285 173 162 -130 82 36 0
281 282 283 284 285 0
-286 -170 0
-286 -113 0
-286 -181 0
-286 -54 0
-286 41 0
286 170 113 181 54 -41 0
-287 24 0
-287 -79 0
-287 -116 0
-287 -155 0
-287 27 0
287 -24 79 116 155 -27 0
-288 -153 0
-288 -97 0
-288 52 0
-288 139 0
-288 -64 0
288 153 97 -52 -139 64 0
-289 67 0
-289 -88 0
-289 136 0
-289 61 0
-289 -164 0
289 -67 88 -136 -61 164 0
-290 -166 0
-290 23 0
-290 -109 0
-290 -40 0
-290 -73 0
290 166 -23 109 40 73 0
286 287 288 289 290 0
-291 22 0
-291 -108 0
-291 33 0
-291 -68 0
-291 -173 0
291 -22 108 -33 68 173 0
-292 -115 0
-292 -26 0
-292 96 0
-292 82 0
-292 118 0
292 115 26 -96 -82 -118 0
-293 -45 0
-293 97 0
-293 116 0
-293 -39 0
-293 165 0
293 45 -97 -116 39 -165 0
-294 79 0
-294 44 0
-294 36 0
-294 66 0
-294 -6 0
294 -79 -44 -36 -66 6 0
-295 -70 0
-295 149 0
-295 168 0
-295 -80 0
-295 -173 0
295 70 -149 -168 80 173 0
291 292 293 294 295 0
-296 -3 0
-296 -127 0
-296 -7 0
-296 -120 0
-296 -104 0
296 3 127 7 120 104 0
-297 16 0
-297 -133 0
-297 -155 0
-297 -46 0
-297 -187 0
297 -16 133 155 46 187 0
-298 -182 0
-298 -148 0
-298 -144 0
-298 -183 0
-298 -114 0
298 182 148 144 183 114 0
-299 -54 0
-299 -184 0
-299 -146 0
-299 -5 0
-299 116 0
299 54 184 146 5 -116 0
-300 102 0
-300 -117 0
-300 -34 0
-300 -159 0
-300 -79 0
300 -102 117 34 159 79 0
296 297 298 299 300 0
-301 128 0
-301 61 0
-301 15 0
-301 44 0
-301 188 0
301 -128 -61 -15 -44 -188 0
-302 -123 0
-302 63 0
-302 -31 0
-302 4 0
-302 -155 0
302 123 -63 31 -4 155 0
-303 53 0
-303 16 0
-303 15 0
-303 -182 0
-303 95 0
303 -53 -16 -15 182 -95 0
-304 186 0
-304 -65 0
-304 -156 0
-304 -175 0
-304 179 0
304 -186 65 156 175 -179 0
-305 10 0
-305 -48 0
-305 -3 0
-305 -9 0
-305 33 0
305 -10 48 3 9 -33 0
301 302 303 304 305 0
-306 -66 0
-306 166 0
-306 -152 0
-306 -39 0
-306 -133 0
306 66 -166 152 39 133 0
-307 166 0
-307 44 0
-307 64 0
-307 -62 0
-307 -17 0
307 -166 -44 -64 62 17 0
-308 -16 0
-308 -60 0
-308 79 0
-308 174 0
-308 -152 0
308 16 60 -79 -174 152 0
-309 -61 0
-309 -134 0
-309 -30 0
-309 -176 0
-309 170 0
309 61 134 30 176 -170 0
-310 -17 0
-310 -143 0
-310 70 0
-310 -18 0
-310 163 0
310 17 143 -70 18 -163 0
306 307 308 309 310 0
-311 -32 0
-311 74 0
-311 -78 0
-311 169 0
-311 80 0
311 32 -74 78 -169 -80 0
-312 81 0
-312 12 0
-312 -71 0
-312 -44 0
-312 54 0
312 -81 -12 71 44 -54 0
-313 -5 0
-313 13 0
-313 -45 0
-313 -81 0
-313 97 0
313 5 -13 45 81 -97 0
-314 127 0
-314 -17 0
-314 92 0
-314 -164 0
-314 -16 0
314 -127 17 -92 164 16 0
-315 -6 0
-315 65 0
-315 -26 0
-315 -101 0
-315 -19 0
315 6 -65 26 101 19 0
311 312 313 314 315 0
-316 -35 0
-316 121 0
-316 43 0
-316 22 0
-316 159 0
316 35 -121 -43 -22 -159 0
-317 49 0
-317 -152 0
-317 123 0
-317 -166 0
-317 -120 0
317 -49 152 -123 166 120 0
-318 116 0
-318 107 0
-318 -48 0
-318 -131 0
-318 -26 0
318 -116 -107 48 131 26 0
-319 -81 0
-319 -118 0
-319 -74 0
-319 -133 0
-319 63 0
319 81 118 74 133 -63 0
-320 145 0
-320 121 0
-320 -66 0
-320 -47 0
-320 -115 0
320 -145 -121 66 47 115 0
316 317 318 319 320 0
-321 88 0
-321 189 0
-321 -134 0
-321 -76 0
-321 73 0
321 -88 -189 134 76 -73 0
-322 164 0
-322 -124 0
-322 -16 0
-322 -54 0
-322 140 0
322 -164 124 16 54 -140 0
-323 -37 0
-323 -141 0
-323 33 0
-323 150 0
-323 -131 0
323 37 141 -33 -150 131 0
-324 -187 0
-324 -99 0
-324 -100 0
-324 -177 0
-324 -119 0
324 187 99 100 177 119 0
-325 -35 0
-325 -88 0
-325 -142 0
-325 52 0
-325 -92 0
325 35 88 142 -52 92 0
321 322 323 324 325 0
-326 78 0
-326 43 0
-326 139 0
-326 -175 0
-326 -148 0
326 -78 -43 -139 175 148 0
-327 -120 0
-327 145 0
-327 36 0
-327 126 0
-327 172 0
327 120 -145 -36 -126 -172 0
-328 149 0
-328 -100 0
-328 -103 0
-328 -104 0
-328 -47 0
328 -149 100 103 104 47 0
-329 -125 0
-329 -107 0
-329 80 0
-329 -170 0
-329 42 0
329 125 107 -80 170 -42 0
-330 106 0
-330 99 0
-330 -136 0
-330 -59 0
-330 18 0
330 -106 -99 136 59 -18 0
326 327 328 329 330 0
-331 1 0
-331 -19 0
-331 108 0
-331 49 0
-331 -188 0
331 -1 19 -108 -49 188 0
-332 -50 0
-332 -61 0
-332 -33 0
-332 35 0
-332 51 0
332 50 61 33 -35 -51 0
-333 -169 0
-333 -154 0
-333 -38 0
-333 157 0
-333 184 0
333 169 154 38 -157 -184 0
-334 -23 0
-334 22 0
-334 -121 0
-334 -1 0
-334 153 0
334 23 -22 121 1 -153 0
-335 -169 0
-335 -173 0
-335 134 0
-335 84 0
-335 -10 0
335 169 173 -134 -84 10 0
331 332 333 334 335 0
-336 156 0
-336 -132 0
-336 143 0
-336 189 0
-336 157 0
336 -156 132 -143 -189 -157 0
-337 -157 0
-337 -78 0
-337 -25 0
-337 92 0
-337 -34 0
337 157 78 25 -92 34 0
-338 97 0
-338 -86 0
-338 100 0
-338 91 0
-338 33 0
338 -97 86 -100 -91 -33 0
-339 42 0
-339 -126 0
-339 151 0
-339 -30 0
-339 171 0
339 -42 126 -151 30 -171 0
-340 120 0
-340 -135 0
-340 -20 0
-340 -40 0
-340 -2 0
340 -120 135 20 40 2 0
336 337 338 339 340 0
-341 121 0
-341 30 0
-341 -78 0
-341 -171 0
-341 150 0
341 -121 -30 78 171 -150 0
-342 -180 0
-342 -13 0
-342 -35 0
-342 -132 0
-342 -177 0
342 180 13 35 132 177 0
-343 -53 0
-343 -174 0
-343 155 0
-343 162 0
-343 -101 0
343 53 174 -155 -162 101 0
-344 157 0
-344 96 0
-344 168 0
-344 -56 0
-344 -181 0
344 -157 -96 -168 56 181 0
-345 -83 0
-345 -32 0
-345 -88 0
-345 -181 0
-345 -105 0
345 83 32 88 181 105 0
341 342 343 344 345 0
-346 144 0
-346 -166 0
-346 -126 0
-346 -108 0
-346 -64 0
346 -144 166 126 108 64 0
-347 -146 0
-347 -83 0
-347 -136 0
-347 59 0
-347 28 0
347 146 83 136 -59 -28 0
-348 48 0
-348 97 0
-348 58 0
-348 -76 0
-348 -180 0
348 -48 -97 -58 76 180 0
-349 -123 0
-349 109 0
-349 177 0
-349 28 0
-349 -136 0
349 123 -109 -177 -28 136 0
-350 -157 0
-350 -111 0
-350 -104 0
-350 -95 0
-350 -126 0
350 157 111 104 95 126 0
346 347 348 349 350 0
-351 -163 0
-351 -143 0
-351 -110 0
-351 40 0
-351 -68 0
351 163 143 110 -40 68 0
-352 75 0
-352 -9 0
-352 163 0
-352 -98 0
-352 -166 0
352 -75 9 -163 98 166 0
-353 -166 0
-353 -180 0
-353 178 0
-353 97 0
-353 162 0
353 166 180 -178 -97 -162 0
-354 -25 0
-354 -115 0
-354 17 0
-354 178 0
-354 -181 0
354 25 115 -17 -178 181 0
-355 151 0
-355 -146 0
-355 9 0
-355 -99 0
-355 190 0
355 -151 146 -9 99 -190 0
351 352 353 354 355 0
-356 36 0
-356 91 0
-356 38 0
-356 -35 0
-356 104 0
356 -36 -91 -38 35 -104 0
-357 -139 0
-357 64 0
-357 39 0
-357 12 0
-357 166 0
357 139 -64 -39 -12 -166 0
-358 -44 0
-358 111 0
-358 29 0
-358 -152 0
-358 155 0
358 44 -111 -29 152 -155 0
-359 72 0
-359 -104 0
-359 -43 0
-359 -30 0
-359 -42 0
359 -72 104 43 30 42 0
-360 177 0
-360 34 0
-360 -6 0
-360 -146 0
-360 -24 0
360 -177 -34 6 146 24 0
356 357 358 359 360 0
-361 -68 0
-361 190 0
-361 -95 0
-361 144 0
-361 -119 0
361 68 -190 95 -144 119 0
-362 149 0
-362 186 0
-362 -120 0
-362 -132 0
-362 -66 0
362 -149 -186 120 132 66 0
-363 165 0
-363 -121 0
-363 35 0
-363 -38 0
-363 -16 0
363 -165 121 -35 38 16 0
-364 -12 0
-364 2 0
-364 -80 0
-364 22 0
-364 189 0
364 12 -2 80 -22 -189 0
-365 21 0
-365 -1 0
-365 131 0
-365 -13 0
-365 33 0
365 -21 1 -131 13 -33 0
361 362 363 364 365 0
-366 -79 0
-366 -26 0
-366 163 0
-366 88 0
-366 118 0
366 79 26 -163 -88 -118 0
-367 -83 0
-367 134 0
-367 48 0
-367 -31 0
-367 -164 0
367 83 -134 -48 31 164 0
-368 -91 0
-368 70 0
-368 -148 0
-368 -24 0
-368 -11 0
368 91 -70 148 24 11 0
-369 115 0
-369 -66 0
-369 183 0
-369 -169 0
-369 20 0
369 -115 66 -183 169 -20 0
-370 -146 0
-370 -37 0
-370 -162 0
-370 -171 0
-370 -97 0
370 146 37 162 171 97 0
366 367 368 369 370 0
-371 165 0
-371 56 0
-371 -106 0
-371 -61 0
-371 -21 0
371 -165 -56 106 61 21 0
-372 -102 0
-372 128 0
-372 96 0
-372 -131 0
-372 118 0
372 102 -128 -96 131 -118 0
-373 90 0
-373 105 0
-373 110 0
-373 30 0
-373 -153 0
373 -90 -105 -110 -30 153 0
-374 -165 0
-374 -178 0
-374 2 0
-374 -97 0
-374 84 0
374 165 178 -2 97 -84 0
-375 52 0
-375 -140 0
-375 -106 0
-375 156 0
-375 100 0
375 -52 140 106 -156 -100 0
371 372 373 374 375 0
-376 -46 0
-376 98 0
-376 -107 0
-376 -89 0
-376 152 0
376 46 -98 107 89 -152 0
-377 6 0
-377 -86 0
-377 -3 0
-377 -1 0
-377 -58 0
377 -6 86 3 1 58 0
-378 155 0
-378 -166 0
-378 163 0
-378 169 0
-378 148 0
378 -155 166 -163 -169 -148 0
-379 -56 0
-379 85 0
-379 -166 0
-379 -30 0
-379 -153 0
379 56 -85 166 30 153 0
-380 -6 0
-380 121 0
-380 -87 0
-380 130 0
-380 135 0
380 6 -121 87 -130 -135 0
376 377 378 379 380 0
-381 49 0
-381 -125 0
-381 -59 0
-381 100 0
-381 43 0
381 -49 125 59 -100 -43 0
-382 -165 0
-382 126 0
-382 -121 0
-382 170 0
-382 -160 0
382 165 -126 121 -170 160 0
-383 101 0
-383 -23 0
-383 -54 0
-383 -183 0
-383 -81 0
383 -101 23 54 183 81 0
-384 70 0
-384 -74 0
-384 -6 0
-384 -157 0
-384 99 0
384 -70 74 6 157 -99 0
-385 -76 0
-385 -104 0
-385 -11 0
-385 167 0
-385 70 0
385 76 104 11 -167 -70 0
381 382 383 384 385 0
-386 -38 0
-386 -103 0
-386 25 0
-386 115 0
-386 122 0
386 38 103 -25 -115 -122 0
-387 61 0
-387 -89 0
-387 -86 0
-387 11 0
-387 -52 0
387 -61 89 86 -11 52 0
-388 130 0
-388 -52 0
-388 -28 0
-388 -44 0
-388 177 0
388 -130 52 28 44 -177 0
-389 -61 0
-389 18 0
-389 142 0
-389 -2 0
-389 83 0
389 61 -18 -142 2 -83 0
-390 173 0
-390 -39 0
-390 114 0
-390 -53 0
-390 151 0
390 -173 39 -114 53 -151 0
386 387 388 389 390 0
-391 -168 0
-391 108 0
-391 -76 0
-391 170 0
-391 86 0
391 168 -108 76 -170 -86 0
-392 182 0
-392 28 0
-392 -52 0
-392 -162 0
-392 117 0
392 -182 -28 52 162 -117 0
-393 -98 0
-393 45 0
-393 119 0
-393 -38 0
-393 171 0
393 98 -45 -119 38 -171 0
-394 -115 0
-394 4 0
-394 131 0
-394 -92 0
-394 -64 0
394 115 -4 -131 92 64 0
-395 -17 0
-395 105 0
-395 -45 0
-395 115 0
-395 -167 0
395 17 -105 45 -115 167 0
391 392 393 394 395 0
-396 155 0
-396 -59 0
-396 73 0
-396 118 0
-396 167 0
396 -155 59 -73 -118 -167 0
-397 46 0
-397 -131 0
-397 -102 0
-397 44 0
-397 -163 0
397 -46 131 102 -44 163 0
-398 -33 0
-398 -48 0
-398 -183 0
-398 -147 0
-398 -2 0
398 33 48 183 147 2 0
-399 59 0
-399 130 0
-399 170 0
-399 29 0
-399 -149 0
399 -59 -130 -170 -29 149 0
-400 -106 0
-400 -137 0
-400 -126 0
-400 185 0
-400 -57 0
400 106 137 126 -185 57 0
396 397 398 399 400 0
-401 -135 0
-401 140 0
-401 -100 0
-401 95 0
-401 -43 0
401 135 -140 100 -95 43 0
-402 82 0
-402 157 0
-402 -8 0
-402 -20 0
-402 -52 0
402 -82 -157 8 20 52 0
-403 -80 0
-403 186 0
-403 -59 0
-403 -115 0
-403 180 0
403 80 -186 59 115 -180 0
-404 -56 0
-404 -156 0
-404 141 0
-404 165 0
-404 -6 0
404 56 156 -141 -165 6 0
-405 115 0
-405 -19 0
-405 -18 0
-405 96 0
-405 125 0
405 -115 19 18 -96 -125 0
401 402 403 404 405 0
-406 134 0
-406 -116 0
-406 151 0
-406 178 0
-406 -119 0
406 -134 116 -151 -178 119 0
-407 -160 0
-407 151 0
-407 77 0
-407 -36 0
-407 1 0
407 160 -151 -77 36 -1 0
-408 -60 0
-408 182 0
-408 -161 0
-408 116 0
-408 -19 0
408 60 -182 161 -116 19 0
-409 136 0
-409 167 0
-409 -85 0
-409 -129 0
-409 -112 0
409 -136 -167 85 129 112 0
-410 22 0
-410 -120 0
-410 126 0
-410 105 0
-410 -104 0
410 -22 120 -126 -105 104 0
406 407 408 409 410 0
-411 -128 0
-411 27 0
-411 130 0
-411 86 0
-411 -137 0
411 128 -27 -130 -86 137 0
-412 16 0
-412 -5 0
-412 161 0
-412 -13 0
-412 136 0
412 -16 5 -161 13 -136 0
-413 80 0
-413 -55 0
-413 -43 0
-413 -144 0
-413 133 0
413 -80 55 43 144 -133 0
-414 -176 0
-414 -60 0
-414 -21 0
-414 -123 0
-414 95 0
414 176 60 21 123 -95 0
-415 95 0
-415 -183 0
-415 134 0
-415 -1 0
-415 121 0
415 -95 183 -134 1 -121 0
411 412 413 414 415 0
-416 62 0
-416 -87 0
-416 -103 0
-416 102 0
-416 90 0
416 -62 87 103 -102 -90 0
-417 -119 0
-417 -175 0
-417 -44 0
-417 -163 0
-417 -21 0
417 119 175 44 163 21 0
-418 40 0
-418 -17 0
-418 35 0
-418 -108 0
-418 -156 0
418 -40 17 -35 108 156 0
-419 -114 0
-419 -56 0
-419 -47 0
-419 -29 0
-419 104 0
419 114 56 47 29 -104 0
-420 -88 0
-420 -152 0
-420 -125 0
-420 72 0
-420 -15 0
420 88 152 125 -72 15 0
416 417 418 419 420 0
-421 149 0
-421 32 0
-421 138 0
-421 -154 0
-421 132 0
421 -149 -32 -138 154 -132 0
-422 -95 0
-422 156 0
-422 23 0
-422 171 0
-422 52 0
422 95 -156 -23 -171 -52 0
-423 175 0
-423 53 0
-423 145 0
-423 -99 0
-423 80 0
423 -175 -53 -145 99 -80 0
-424 157 0
-424 113 0
-424 164 0
-424 139 0
-424 126 0
424 -157 -113 -164 -139 -126 0
-425 -69 0
-425 -63 0
-425 124 0
-425 130 0
-425 52 0
425 69 63 -124 -130 -52 0
421 422 423 424 425 0
-426 99 0
-426 -48 0
-426 -183 0
-426 181 0
-426 190 0
426 -99 48 183 -181 -190 0
-427 -83 0
-427 180 0
-427 -11 0
-427 -141 0
-427 -161 0
427 83 -180 11 141 161 0
-428 93 0
-428 -151 0
-428 76 0
-428 87 0
-428 -95 0
428 -93 151 -76 -87 95 0
-429 41 0
-429 56 0
-429 -84 0
-429 81 0
-429 60 0
429 -41 -56 84 -81 -60 0
-430 41 0
-430 23 0
-430 18 0
-430 116 0
-430 62 0
430 -41 -23 -18 -116 -62 0
426 427 428 429 430 0
